c colouring generated by benchmark framework
p edge 450 9757
v 1 4
v 2 3
v 3 0
v 4 2
v 5 1
v 6 4
v 7 3
v 8 0
v 9 2
v 10 1
v 11 4
v 12 3
v 13 0
v 14 2
v 15 1
v 16 4
v 17 3
v 18 0
v 19 2
v 20 1
v 21 4
v 22 3
v 23 0
v 24 2
v 25 1
v 26 4
v 27 3
v 28 0
v 29 2
v 30 1
v 31 4
v 32 3
v 33 0
v 34 2
v 35 1
v 36 4
v 37 3
v 38 0
v 39 2
v 40 1
v 41 4
v 42 3
v 43 0
v 44 2
v 45 1
v 46 4
v 47 3
v 48 0
v 49 2
v 50 1
v 51 4
v 52 3
v 53 0
v 54 2
v 55 1
v 56 4
v 57 3
v 58 0
v 59 2
v 60 1
v 61 4
v 62 3
v 63 0
v 64 2
v 65 1
v 66 4
v 67 3
v 68 0
v 69 2
v 70 1
v 71 4
v 72 3
v 73 0
v 74 2
v 75 1
v 76 4
v 77 3
v 78 0
v 79 2
v 80 1
v 81 4
v 82 3
v 83 0
v 84 2
v 85 1
v 86 4
v 87 3
v 88 0
v 89 2
v 90 1
v 91 4
v 92 3
v 93 0
v 94 2
v 95 1
v 96 4
v 97 3
v 98 0
v 99 2
v 100 1
v 101 4
v 102 3
v 103 0
v 104 2
v 105 1
v 106 4
v 107 3
v 108 0
v 109 2
v 110 1
v 111 4
v 112 3
v 113 0
v 114 2
v 115 1
v 116 4
v 117 3
v 118 0
v 119 2
v 120 1
v 121 4
v 122 3
v 123 0
v 124 2
v 125 1
v 126 4
v 127 3
v 128 0
v 129 2
v 130 1
v 131 4
v 132 3
v 133 0
v 134 2
v 135 1
v 136 4
v 137 3
v 138 0
v 139 2
v 140 1
v 141 4
v 142 3
v 143 0
v 144 2
v 145 1
v 146 4
v 147 3
v 148 0
v 149 2
v 150 1
v 151 4
v 152 3
v 153 0
v 154 2
v 155 1
v 156 4
v 157 3
v 158 0
v 159 2
v 160 1
v 161 4
v 162 3
v 163 0
v 164 2
v 165 1
v 166 4
v 167 3
v 168 0
v 169 2
v 170 1
v 171 4
v 172 3
v 173 0
v 174 2
v 175 1
v 176 4
v 177 3
v 178 0
v 179 2
v 180 1
v 181 4
v 182 3
v 183 0
v 184 2
v 185 1
v 186 4
v 187 3
v 188 0
v 189 2
v 190 1
v 191 4
v 192 3
v 193 0
v 194 2
v 195 1
v 196 4
v 197 3
v 198 0
v 199 2
v 200 1
v 201 4
v 202 3
v 203 0
v 204 2
v 205 1
v 206 4
v 207 3
v 208 0
v 209 2
v 210 1
v 211 4
v 212 3
v 213 0
v 214 2
v 215 1
v 216 4
v 217 3
v 218 0
v 219 2
v 220 1
v 221 4
v 222 3
v 223 0
v 224 2
v 225 1
v 226 4
v 227 3
v 228 0
v 229 2
v 230 1
v 231 4
v 232 3
v 233 0
v 234 2
v 235 1
v 236 4
v 237 3
v 238 0
v 239 2
v 240 1
v 241 4
v 242 3
v 243 0
v 244 2
v 245 1
v 246 4
v 247 3
v 248 0
v 249 2
v 250 1
v 251 4
v 252 3
v 253 0
v 254 2
v 255 1
v 256 4
v 257 3
v 258 0
v 259 2
v 260 1
v 261 4
v 262 3
v 263 0
v 264 2
v 265 1
v 266 4
v 267 3
v 268 0
v 269 2
v 270 1
v 271 4
v 272 3
v 273 0
v 274 2
v 275 1
v 276 4
v 277 3
v 278 0
v 279 2
v 280 1
v 281 4
v 282 3
v 283 0
v 284 2
v 285 1
v 286 4
v 287 3
v 288 0
v 289 2
v 290 1
v 291 4
v 292 3
v 293 0
v 294 2
v 295 1
v 296 4
v 297 3
v 298 0
v 299 2
v 300 1
v 301 4
v 302 3
v 303 0
v 304 2
v 305 1
v 306 4
v 307 3
v 308 0
v 309 2
v 310 1
v 311 4
v 312 3
v 313 0
v 314 2
v 315 1
v 316 4
v 317 3
v 318 0
v 319 2
v 320 1
v 321 4
v 322 3
v 323 0
v 324 2
v 325 1
v 326 4
v 327 3
v 328 0
v 329 2
v 330 1
v 331 4
v 332 3
v 333 0
v 334 2
v 335 1
v 336 4
v 337 3
v 338 0
v 339 2
v 340 1
v 341 4
v 342 3
v 343 0
v 344 2
v 345 1
v 346 4
v 347 3
v 348 0
v 349 2
v 350 1
v 351 4
v 352 3
v 353 0
v 354 2
v 355 1
v 356 4
v 357 3
v 358 0
v 359 2
v 360 1
v 361 4
v 362 3
v 363 0
v 364 2
v 365 1
v 366 4
v 367 3
v 368 0
v 369 2
v 370 1
v 371 4
v 372 3
v 373 0
v 374 2
v 375 1
v 376 4
v 377 3
v 378 0
v 379 2
v 380 1
v 381 4
v 382 3
v 383 0
v 384 2
v 385 1
v 386 4
v 387 3
v 388 0
v 389 2
v 390 1
v 391 4
v 392 3
v 393 0
v 394 2
v 395 1
v 396 4
v 397 3
v 398 0
v 399 2
v 400 1
v 401 4
v 402 3
v 403 0
v 404 2
v 405 1
v 406 4
v 407 3
v 408 0
v 409 2
v 410 1
v 411 4
v 412 3
v 413 0
v 414 2
v 415 1
v 416 4
v 417 3
v 418 0
v 419 2
v 420 1
v 421 4
v 422 3
v 423 0
v 424 2
v 425 1
v 426 4
v 427 3
v 428 0
v 429 2
v 430 1
v 431 4
v 432 3
v 433 0
v 434 2
v 435 1
v 436 4
v 437 3
v 438 0
v 439 2
v 440 1
v 441 4
v 442 3
v 443 0
v 444 2
v 445 1
v 446 4
v 447 3
v 448 0
v 449 2
v 450 1
